Traveling Salesman Problem/TSP_generados/Aleatorio1621103379_12.tsp
NAME: Aleatorio1621103379_12.tsp
COMMENT: Randomly generated scenario
TYPE: TSP
DIMENSION: 12
EDGE_WEIGHT_TYPE: ATT
NODE_COORD_SECTION
1 24.35 13.3
2 4.01 38.53
3 38.96 14.73
4 34.36 9.07
5 35.67 20.9
6 22.84 32.09
7 22.6 15.57
8 26.06 49.51
9 5.91 31.85
10 19.06 41.23
11 3.11 18.71
12 31.91 25.75
