Traveling Salesman Problem/TSP_generados/Aleatorio1621103379_12.opt.tour
NAME: Aleatorio1621103379_12.opt.tour
COMMENT: Optimal solution for Aleatorio1621103379_12 (129.19126566936828)
TYPE: TOUR
DIMENSION: 12
TOUR_SECTION
1 7 11 9 2 10 8 6 12 5 3 4
-1
EOF
